% Logging successfully configured
%%%mzn-stat: initTime=0.074796266
%%%mzn-stat: objective=977
%%%mzn-stat: nodes=228
%%%mzn-stat: restarts=0
%%%mzn-stat: peakDepth=80
%%%mzn-stat: solveTime=0.001978846
%%%mzn-stat: variables=209
%%%mzn-stat: propagators=130
%%%mzn-stat: failures=43
%%%mzn-stat: propagations=1872
%%%mzn-stat: nogoods=43
%%%mzn-stat: numAtomicConstraintsPropagated=0
%%%mzn-stat: allDifferentNumber1TotalHallSetSize=179
%%%mzn-stat: allDifferentNumber1NumberOfConflicts=43
%%%mzn-stat: allDifferentNumber1MaxHallSetSize=15
%%%mzn-stat: allDifferentNumber1PropagationsTotal=332
%%%mzn-stat: allDifferentNumber1PropagationsThatFoundConflict=43
%%%mzn-stat: circuitNumber2PropagationsThatFoundConflict=0
%%%mzn-stat: circuitNumber2TotalFixedEdgesAtConflict=0
%%%mzn-stat: circuitNumber2NumberOfConflicts=0
%%%mzn-stat: circuitNumber2PropagationsThatPruned=33
%%%mzn-stat: circuitNumber2PropagationsTotal=168
%%%mzn-stat: AverageConflictSize=3.511627906976744
%%%mzn-stat: NumUnitNogoodsLearned=0
%%%mzn-stat: AverageLearnedNogoodLength=3.627906976744186
%%%mzn-stat: AverageBacktrackAmount=0
%%%mzn-stat: AverageLbd=3.5813953488372094
%%%mzn-stat: 2AutonomousSearchNumBackupCalled=69
%%%mzn-stat: 2AutonomousSearchNumPredicatesRemoved=0
%%%mzn-stat: 2AutonomousSearchNumCalls=70
%%%mzn-stat: 2AutonomousSearchNumPredicatesAdded=205
%%%mzn-stat: 2AutonomousSearchAverageSizeOfHeap=2.9285714285714284
%%%mzn-stat: 2AutonomousSearchNumAssignedPredicatesEncountered=205
%%%mzn-stat-end
maxleg = 977;
succ = array1d(1..20,[4, 3, 8, 12, 10, 17, 6, 14, 11, 18, 13, 16, 7, 5, 19, 2, 15, 20, 1, 9]);
% time elapsed: 12.56 s
----------
%%%mzn-stat: initTime=0.074796266
%%%mzn-stat: objective=857
%%%mzn-stat: nodes=373
%%%mzn-stat: restarts=0
%%%mzn-stat: peakDepth=82
%%%mzn-stat: solveTime=0.005503233
%%%mzn-stat: variables=209
%%%mzn-stat: propagators=130
%%%mzn-stat: failures=78
%%%mzn-stat: propagations=2956
%%%mzn-stat: nogoods=78
%%%mzn-stat: numAtomicConstraintsPropagated=0
%%%mzn-stat: allDifferentNumber1TotalHallSetSize=349
%%%mzn-stat: allDifferentNumber1NumberOfConflicts=78
%%%mzn-stat: allDifferentNumber1MaxHallSetSize=15
%%%mzn-stat: allDifferentNumber1PropagationsTotal=532
%%%mzn-stat: allDifferentNumber1PropagationsThatFoundConflict=78
%%%mzn-stat: circuitNumber2PropagationsThatFoundConflict=0
%%%mzn-stat: circuitNumber2TotalFixedEdgesAtConflict=0
%%%mzn-stat: circuitNumber2NumberOfConflicts=0
%%%mzn-stat: circuitNumber2PropagationsThatPruned=59
%%%mzn-stat: circuitNumber2PropagationsTotal=267
%%%mzn-stat: AverageConflictSize=3.9743589743589745
%%%mzn-stat: NumUnitNogoodsLearned=0
%%%mzn-stat: AverageLearnedNogoodLength=4.0256410256410255
%%%mzn-stat: AverageBacktrackAmount=0
%%%mzn-stat: AverageLbd=3.8333333333333335
%%%mzn-stat: 2AutonomousSearchNumBackupCalled=136
%%%mzn-stat: 2AutonomousSearchNumPredicatesRemoved=0
%%%mzn-stat: 2AutonomousSearchNumCalls=138
%%%mzn-stat: 2AutonomousSearchNumPredicatesAdded=360
%%%mzn-stat: 2AutonomousSearchAverageSizeOfHeap=3.289855072463768
%%%mzn-stat: 2AutonomousSearchNumAssignedPredicatesEncountered=454
%%%mzn-stat-end
maxleg = 857;
succ = array1d(1..20,[4, 3, 8, 12, 15, 10, 6, 14, 11, 17, 13, 16, 7, 18, 19, 2, 5, 20, 1, 9]);
% time elapsed: 12.57 s
----------
%%%mzn-stat: initTime=0.074796266
%%%mzn-stat: objective=703
%%%mzn-stat: nodes=487
%%%mzn-stat: restarts=0
%%%mzn-stat: peakDepth=82
%%%mzn-stat: solveTime=0.006728689
%%%mzn-stat: variables=209
%%%mzn-stat: propagators=130
%%%mzn-stat: failures=109
%%%mzn-stat: propagations=3811
%%%mzn-stat: nogoods=109
%%%mzn-stat: numAtomicConstraintsPropagated=0
%%%mzn-stat: allDifferentNumber1TotalHallSetSize=534
%%%mzn-stat: allDifferentNumber1NumberOfConflicts=108
%%%mzn-stat: allDifferentNumber1MaxHallSetSize=15
%%%mzn-stat: allDifferentNumber1PropagationsTotal=663
%%%mzn-stat: allDifferentNumber1PropagationsThatFoundConflict=108
%%%mzn-stat: circuitNumber2PropagationsThatFoundConflict=1
%%%mzn-stat: circuitNumber2TotalFixedEdgesAtConflict=12
%%%mzn-stat: circuitNumber2NumberOfConflicts=1
%%%mzn-stat: circuitNumber2PropagationsThatPruned=73
%%%mzn-stat: circuitNumber2PropagationsTotal=326
%%%mzn-stat: AverageConflictSize=4.422018348623853
%%%mzn-stat: NumUnitNogoodsLearned=0
%%%mzn-stat: AverageLearnedNogoodLength=4.559633027522936
%%%mzn-stat: AverageBacktrackAmount=0
%%%mzn-stat: AverageLbd=4.174311926605505
%%%mzn-stat: 2AutonomousSearchNumBackupCalled=202
%%%mzn-stat: 2AutonomousSearchNumPredicatesRemoved=0
%%%mzn-stat: 2AutonomousSearchNumCalls=205
%%%mzn-stat: 2AutonomousSearchNumPredicatesAdded=562
%%%mzn-stat: 2AutonomousSearchAverageSizeOfHeap=3.624390243902439
%%%mzn-stat: 2AutonomousSearchNumAssignedPredicatesEncountered=743
%%%mzn-stat-end
maxleg = 703;
succ = array1d(1..20,[4, 3, 8, 12, 19, 10, 6, 14, 11, 17, 13, 16, 7, 18, 5, 2, 15, 20, 1, 9]);
% time elapsed: 12.57 s
----------
%%%mzn-stat: initTime=0.074796266
%%%mzn-stat: objective=679
%%%mzn-stat: nodes=605
%%%mzn-stat: restarts=0
%%%mzn-stat: peakDepth=82
%%%mzn-stat: solveTime=0.007744903
%%%mzn-stat: variables=209
%%%mzn-stat: propagators=130
%%%mzn-stat: failures=130
%%%mzn-stat: propagations=4637
%%%mzn-stat: nogoods=130
%%%mzn-stat: numAtomicConstraintsPropagated=0
%%%mzn-stat: allDifferentNumber1TotalHallSetSize=657
%%%mzn-stat: allDifferentNumber1NumberOfConflicts=128
%%%mzn-stat: allDifferentNumber1MaxHallSetSize=16
%%%mzn-stat: allDifferentNumber1PropagationsTotal=781
%%%mzn-stat: allDifferentNumber1PropagationsThatFoundConflict=128
%%%mzn-stat: circuitNumber2PropagationsThatFoundConflict=2
%%%mzn-stat: circuitNumber2TotalFixedEdgesAtConflict=27
%%%mzn-stat: circuitNumber2NumberOfConflicts=2
%%%mzn-stat: circuitNumber2PropagationsThatPruned=88
%%%mzn-stat: circuitNumber2PropagationsTotal=388
%%%mzn-stat: AverageConflictSize=4.507692307692308
%%%mzn-stat: NumUnitNogoodsLearned=0
%%%mzn-stat: AverageLearnedNogoodLength=4.7153846153846155
%%%mzn-stat: AverageBacktrackAmount=0
%%%mzn-stat: AverageLbd=4.176923076923077
%%%mzn-stat: 2AutonomousSearchNumBackupCalled=269
%%%mzn-stat: 2AutonomousSearchNumPredicatesRemoved=0
%%%mzn-stat: 2AutonomousSearchNumCalls=273
%%%mzn-stat: 2AutonomousSearchNumPredicatesAdded=801
%%%mzn-stat: 2AutonomousSearchAverageSizeOfHeap=4.0476190476190474
%%%mzn-stat: 2AutonomousSearchNumAssignedPredicatesEncountered=1105
%%%mzn-stat-end
maxleg = 679;
succ = array1d(1..20,[4, 12, 8, 3, 19, 10, 6, 14, 11, 17, 13, 16, 7, 18, 5, 1, 15, 20, 2, 9]);
% time elapsed: 12.57 s
----------
==========
% time elapsed: 12.57 s
%%%mzn-stat: initTime=0.074796266
%%%mzn-stat: objective=679
%%%mzn-stat: nodes=779
%%%mzn-stat: restarts=0
%%%mzn-stat: peakDepth=82
%%%mzn-stat: solveTime=0.01156427
%%%mzn-stat: variables=209
%%%mzn-stat: propagators=130
%%%mzn-stat: failures=235
%%%mzn-stat: propagations=7674
%%%mzn-stat: nogoods=235
%%%mzn-stat: numAtomicConstraintsPropagated=0
%%%mzn-stat: allDifferentNumber1TotalHallSetSize=1020
%%%mzn-stat: allDifferentNumber1NumberOfConflicts=216
%%%mzn-stat: allDifferentNumber1MaxHallSetSize=16
%%%mzn-stat: allDifferentNumber1PropagationsTotal=1236
%%%mzn-stat: allDifferentNumber1PropagationsThatFoundConflict=216
%%%mzn-stat: circuitNumber2PropagationsThatFoundConflict=14
%%%mzn-stat: circuitNumber2TotalFixedEdgesAtConflict=132
%%%mzn-stat: circuitNumber2NumberOfConflicts=14
%%%mzn-stat: circuitNumber2PropagationsThatPruned=181
%%%mzn-stat: circuitNumber2PropagationsTotal=638
%%%mzn-stat: AverageConflictSize=4.4297872340425535
%%%mzn-stat: NumUnitNogoodsLearned=1
%%%mzn-stat: AverageLearnedNogoodLength=5.14468085106383
%%%mzn-stat: AverageBacktrackAmount=0
%%%mzn-stat: AverageLbd=3.7361702127659573
%%%mzn-stat: 2AutonomousSearchNumBackupCalled=269
%%%mzn-stat: 2AutonomousSearchNumPredicatesRemoved=0
%%%mzn-stat: 2AutonomousSearchNumCalls=273
%%%mzn-stat: 2AutonomousSearchNumPredicatesAdded=1174
%%%mzn-stat: 2AutonomousSearchAverageSizeOfHeap=4.0476190476190474
%%%mzn-stat: 2AutonomousSearchNumAssignedPredicatesEncountered=1105
%%%mzn-stat-end
